139 139
1 1 1 1 1 1 1 1 1 1 1 1 1 1 1 1 1 1 1 1 1 1 1 1 1 1 1 1 1 1 1 1 1 1 1 1 1 1 1 1 1 1 1 1 1 1 1 1 1 1 1 1 1 1 1 1 1 1 1 1 1 1 1 1 1 1 1 1 1 1 1 1 1 1 1 1 1 1 1 1 1 1 1 1 1 1 1 1 1 1 1 1 1 1 1 1 1 1 1 1 1 1 1 1 1 1 1 1 1 1 1 1 1 1 1 1 1 1 1 1 1 1 1 1 1 1 1 1 1 1 1 1 1 1 1 1 1 1 1
44
1 2 4 5 7 8 10 12 13 17 21 25 27 30 31 38 42 44 46 47 48 54 60 62 65 66 68 69 70 73 74 77 80 81 82 110 111 112 115 121 122 132 136 138
55
1 2 8 9 12 16 17 18 21 22 25 27 38 41 42 44 46 48 50 52 54 55 56 57 60 63 65 66 67 69 70 73 74 77 78 79 80 81 82 83 86 87 92 98 101 109 111 115 117 121 122 126 132 136 138
6
3 20 35 40 129 139
41
1 4 5 7 8 10 12 17 19 21 23 25 31 34 38 47 48 54 60 62 66 68 69 70 74 92 93 96 106 110 111 112 113 114 115 116 117 118 125 132 136
31
1 4 5 7 8 10 12 13 25 31 38 42 44 47 48 54 60 62 66 68 69 74 81 82 110 111 112 114 115 132 136
22
6 11 14 24 26 28 29 32 37 43 45 49 51 61 64 76 91 94 103 123 131 137
32
1 4 5 7 8 10 12 13 19 23 25 31 38 44 47 48 54 60 62 66 68 69 74 93 106 110 111 112 114 115 132 136
55
1 2 4 5 7 8 9 10 12 13 17 18 21 22 25 27 30 31 38 41 42 44 46 47 48 50 54 56 60 65 66 67 68 69 70 73 74 77 78 80 81 82 92 101 109 111 112 115 117 121 122 126 132 136 138
51
2 8 9 16 17 18 21 22 25 27 38 39 41 42 46 50 52 54 55 56 57 58 59 63 65 66 67 69 70 72 77 78 79 80 82 83 88 92 95 98 101 102 108 111 117 120 121 122 124 126 138
45
1 4 5 7 8 10 12 13 17 19 23 25 31 38 42 44 46 47 48 50 54 60 62 65 66 68 69 73 74 77 80 81 82 92 93 110 111 112 114 115 117 121 132 136 138
17
6 11 14 24 26 29 32 37 51 61 64 76 85 94 103 131 137
49
1 2 4 5 7 8 10 12 16 17 21 25 31 38 42 44 46 47 48 50 54 60 65 66 68 69 70 74 80 81 82 86 87 92 93 109 110 111 112 114 115 117 121 122 125 126 127 132 136
20
1 5 7 8 10 13 25 30 31 44 60 62 65 68 73 77 80 81 111 138
28
6 11 14 15 24 26 28 29 32 37 43 45 49 51 61 64 76 91 94 103 107 123 130 131 133 134 135 137
24
14 15 24 26 28 29 32 37 43 45 49 61 64 76 91 94 103 104 123 130 131 134 135 137
30
2 9 12 16 21 22 25 33 38 42 47 50 66 69 74 75 82 87 92 108 109 114 115 117 121 122 125 126 127 136
59
1 2 4 8 9 10 12 17 18 21 22 25 27 38 41 42 44 46 47 48 50 52 54 55 56 57 58 60 65 66 67 68 69 70 73 74 77 78 79 80 81 82 83 86 92 95 98 101 109 111 112 115 117 121 122 126 132 136 138
42
2 8 9 17 18 21 22 27 38 39 41 42 46 50 52 55 56 57 58 59 63 65 67 69 70 72 77 78 79 80 83 88 92 95 98 101 102 120 121 122 124 138
30
4 7 10 19 23 25 31 34 38 47 48 54 66 68 69 74 93 96 105 106 110 112 114 115 116 117 125 127 132 136
6
3 20 35 40 129 139
63
1 2 4 8 9 12 16 17 18 21 22 25 27 38 39 41 42 44 46 48 50 52 54 55 56 57 58 59 60 63 65 66 67 68 69 70 72 73 74 77 78 79 80 82 83 88 92 95 98 101 111 112 113 115 117 120 121 122 124 126 132 136 138
53
2 8 9 16 17 18 21 22 25 27 38 39 41 42 46 48 50 52 54 55 56 57 58 59 63 65 66 67 69 70 72 74 77 78 79 80 82 83 88 92 95 98 101 102 111 113 117 120 121 122 124 126 138
12
4 7 10 19 23 31 34 68 106 110 112 114
26
6 11 14 15 24 26 28 29 32 37 43 45 49 51 61 64 76 85 91 94 103 107 123 131 135 137
57
1 2 4 5 7 8 9 10 12 13 16 17 19 21 22 25 27 31 38 42 44 46 47 48 50 54 56 60 65 66 67 68 69 70 73 74 77 78 80 81 82 92 93 96 110 111 112 114 115 117 121 122 125 126 132 136 138
26
6 11 14 15 24 26 28 29 32 37 43 45 49 51 61 64 76 91 94 103 123 130 131 134 135 137
52
1 2 8 9 17 18 21 22 25 27 38 39 41 42 44 46 50 52 54 55 56 57 58 59 60 63 65 66 67 69 70 72 73 74 77 78 79 80 81 82 83 86 92 95 98 101 109 111 121 122 124 138
25
6 14 15 24 26 28 29 32 37 43 45 49 61 64 76 91 94 103 104 123 130 131 134 135 137
27
6 11 14 15 24 26 28 29 32 37 43 45 49 51 61 64 76 91 94 103 104 123 130 131 134 135 137
17
1 8 13 30 42 44 46 62 65 73 77 80 81 82 109 111 138
35
1 4 5 7 8 10 12 13 19 23 25 31 34 38 44 47 48 54 60 62 66 68 69 73 74 77 81 93 110 111 112 114 115 132 136
27
6 11 14 15 24 26 28 29 32 37 43 45 49 51 61 64 76 91 94 103 104 123 130 131 134 135 137
14
16 33 42 50 78 80 82 86 87 108 109 121 122 126
17
4 19 23 31 34 47 68 93 96 105 106 110 112 114 115 116 132
6
3 20 35 40 129 139
2
36 128
26
6 11 14 15 24 26 28 29 32 37 43 45 49 51 61 64 76 91 94 103 123 130 131 134 135 137
70
1 2 4 5 7 8 9 10 12 16 17 18 19 21 22 25 27 31 38 41 42 44 46 47 48 50 52 54 55 56 57 60 65 66 67 68 69 70 73 74 77 78 79 80 81 82 83 88 92 93 95 96 98 100 101 110 111 112 113 114 115 117 118 121 122 125 126 132 136 138
28
9 18 21 22 27 39 41 52 55 57 58 59 63 67 72 78 79 80 83 88 92 98 101 102 120 121 122 124
6
3 20 35 40 129 139
44
2 8 9 17 18 21 22 27 38 39 41 46 48 50 52 54 55 56 57 58 59 63 65 67 69 70 72 78 79 80 83 88 92 95 98 101 102 113 117 120 121 122 124 126
54
1 2 5 8 9 10 12 16 17 18 21 22 25 27 30 33 38 42 44 46 47 48 50 54 56 60 65 66 67 69 70 73 74 77 78 80 81 82 86 87 92 101 108 109 111 115 117 121 122 125 126 132 136 138
24
6 14 15 24 26 28 29 32 37 43 45 49 64 76 91 94 103 104 123 130 131 134 135 137
39
1 2 5 7 8 10 12 13 17 21 25 27 30 31 38 42 44 46 54 60 62 65 66 70 73 74 77 78 80 81 82 86 109 111 121 122 132 136 138
23
6 14 15 24 26 28 29 32 37 43 45 49 61 64 76 91 94 103 123 130 131 135 137
46
1 2 8 9 10 12 17 18 21 22 25 27 30 38 41 42 44 46 50 52 54 56 60 65 66 67 69 70 73 74 77 78 80 81 82 86 92 101 109 111 115 121 122 132 136 138
42
1 4 5 7 8 10 12 16 17 19 25 31 34 38 42 47 48 50 54 60 66 68 69 74 82 92 93 96 105 106 110 111 112 114 115 116 117 125 126 127 132 136
54
1 2 4 5 7 8 10 12 17 19 21 22 25 31 38 41 42 47 48 50 52 54 56 60 66 67 68 69 70 74 80 82 83 92 93 95 96 100 101 110 111 112 113 114 115 117 118 121 122 125 126 127 132 136
25
6 14 15 24 26 28 29 32 37 43 45 49 61 64 76 91 94 103 104 123 130 131 134 135 137
53
2 8 9 10 12 16 17 18 21 22 25 27 33 38 41 42 46 47 48 50 54 56 60 65 66 67 69 70 74 77 78 79 80 82 86 87 92 93 96 101 108 109 112 114 115 117 121 122 125 126 127 132 136
14
6 11 14 24 26 29 32 37 51 61 76 94 103 137
40
2 9 17 18 21 22 27 38 39 41 46 48 52 54 55 56 57 58 59 60 63 66 67 70 72 78 79 83 88 92 95 98 101 113 117 120 121 122 124 126
3
53 102 120
62
1 2 4 5 7 8 9 10 12 17 19 21 22 25 27 31 38 41 42 44 46 47 48 50 52 54 56 60 65 66 67 68 69 70 73 74 77 78 80 82 83 92 93 95 96 100 101 110 111 112 113 114 115 117 118 121 122 125 126 132 136 138
34
2 9 17 18 21 22 27 38 39 41 52 55 56 57 58 59 63 67 70 72 78 79 80 83 88 92 95 98 101 102 120 121 122 124
48
2 8 9 17 18 21 22 25 27 38 41 42 46 48 50 52 54 55 56 57 58 59 60 65 66 67 69 70 73 74 77 78 79 80 82 83 92 95 98 101 111 115 117 121 122 124 126 132
35
2 9 17 18 21 22 27 38 39 41 52 55 56 57 58 59 63 67 69 72 78 79 80 83 88 92 98 101 102 117 120 121 122 124 126
32
9 17 18 21 22 27 39 41 52 55 56 57 58 59 63 67 72 78 79 83 88 92 95 98 100 101 102 117 120 121 122 124
29
9 18 21 22 27 39 41 52 55 56 57 58 59 63 67 72 78 79 83 88 92 95 98 101 102 120 121 122 124
51
1 2 4 5 7 8 10 12 13 17 21 25 27 31 38 42 44 46 47 48 50 52 54 56 60 65 66 68 69 70 73 74 77 80 81 82 92 93 95 110 111 112 113 114 115 117 121 122 132 136 138
25
6 11 14 15 24 26 28 29 32 37 45 49 51 61 64 71 76 85 91 94 103 123 130 131 137
16
1 4 5 7 10 13 30 31 44 62 73 77 81 111 112 138
28
2 9 18 21 22 27 39 41 52 55 57 58 59 63 67 72 78 79 83 88 92 98 101 102 120 121 122 124
26
6 11 14 15 24 26 28 29 32 37 43 45 49 61 64 76 91 94 103 104 123 130 131 134 135 137
47
1 2 8 9 10 12 13 17 18 21 22 25 27 30 38 41 42 44 46 50 54 56 60 65 66 67 68 69 70 73 74 77 78 80 81 82 86 92 101 109 111 115 121 122 132 136 138
60
1 2 4 5 7 8 9 10 12 16 17 19 21 22 25 27 31 38 42 44 46 47 48 50 52 54 56 60 65 66 67 68 69 70 73 74 77 78 80 81 82 83 88 92 93 96 100 110 111 112 114 115 117 121 122 125 126 127 132 136
50
2 8 9 17 18 21 22 25 27 38 39 41 42 46 48 50 52 54 55 56 57 58 59 63 65 66 67 69 70 72 74 78 79 80 83 88 92 95 98 100 101 102 112 113 117 120 121 122 124 126
39
1 4 5 7 8 10 12 13 17 19 21 23 25 31 34 38 47 48 54 60 65 66 68 69 70 74 77 92 93 110 111 112 113 114 115 117 121 132 136
62
1 2 4 5 7 8 9 10 12 16 17 18 19 21 22 25 27 31 38 41 42 46 47 48 50 54 56 57 60 65 66 67 68 69 70 74 78 79 80 82 87 88 92 93 96 98 100 101 110 111 112 114 115 117 118 121 122 125 126 127 132 136
52
1 2 4 8 9 12 17 18 21 22 25 27 38 41 42 44 46 48 50 52 54 55 56 60 65 66 67 68 69 70 73 74 77 78 80 81 82 83 92 95 101 109 111 112 113 115 117 121 122 132 136 138
2
61 71
28
9 18 21 22 27 39 41 52 55 57 58 59 63 67 72 78 79 80 83 88 92 98 101 102 120 121 122 124
35
1 2 8 10 13 17 21 25 27 30 31 38 42 44 46 54 56 60 62 65 66 70 73 77 78 80 81 82 86 109 111 121 122 136 138
54
1 2 4 5 7 8 10 12 16 17 19 21 22 25 27 31 38 42 44 46 47 48 50 54 56 60 65 66 67 68 69 70 74 77 78 80 82 92 93 96 110 111 112 114 115 117 118 121 122 125 126 127 132 136
6
16 75 102 108 124 126
28
6 11 14 15 24 26 28 29 32 37 43 45 49 51 61 64 76 85 91 94 103 104 123 130 131 134 135 137
42
1 2 8 9 10 13 17 18 21 22 25 27 30 31 38 42 44 46 50 54 56 60 62 65 66 68 70 73 74 77 78 80 81 82 92 109 111 121 122 132 136 138
56
2 8 9 17 18 21 22 25 27 33 38 39 41 42 44 46 50 52 54 55 56 57 58 59 63 65 66 67 69 70 72 73 74 77 78 79 80 81 82 83 86 88 92 95 98 101 102 108 109 117 120 121 122 124 126 138
36
2 9 17 18 21 22 27 38 39 41 50 52 55 56 57 58 59 63 67 69 72 78 79 80 83 88 92 95 98 101 102 120 121 122 124 126
51
1 2 8 9 10 12 13 17 18 21 22 25 27 30 33 38 39 41 42 44 46 48 50 54 55 56 57 60 65 66 67 69 70 72 73 74 77 78 79 80 81 82 86 92 101 109 111 121 122 136 138
35
1 2 5 8 10 12 13 17 25 27 30 31 38 42 44 46 60 62 65 66 70 73 77 78 80 81 82 86 109 111 115 121 132 136 138
51
1 2 5 8 9 10 12 16 17 21 22 25 27 30 33 38 42 44 46 47 48 50 54 56 60 65 66 69 70 73 74 77 78 80 81 82 86 87 92 109 111 114 115 117 121 122 125 126 132 136 138
39
2 9 17 18 21 22 27 38 39 41 48 52 54 55 56 57 58 59 63 66 67 70 72 78 79 83 88 92 95 98 100 101 113 117 120 121 122 124 126
3
84 89 99
6
11 24 61 76 85 137
21
2 12 17 27 33 42 44 46 50 65 73 78 80 81 82 86 87 108 109 121 122
18
2 12 16 33 42 50 69 82 86 87 92 108 109 115 121 122 125 126
36
9 18 21 22 38 39 41 52 55 57 58 59 63 66 67 69 72 78 79 83 88 90 92 95 98 100 101 102 113 117 118 119 120 121 122 124
3
84 89 99
4
88 90 100 118
25
6 14 15 24 26 28 29 32 37 43 45 49 61 64 76 91 94 99 103 123 130 131 134 135 137
68
2 4 8 9 10 12 16 17 18 21 22 25 27 38 39 41 42 46 47 48 50 52 54 55 56 57 58 59 60 63 65 66 67 68 69 70 72 74 77 78 79 80 82 83 87 88 92 93 95 96 98 100 101 110 111 112 113 114 115 117 118 121 122 124 125 126 132 136
35
4 7 10 12 19 25 31 34 38 47 48 50 54 60 66 68 69 74 92 93 96 100 105 110 112 113 114 115 116 117 118 125 126 132 136
27
6 11 14 15 24 26 28 29 32 37 43 45 49 51 61 64 76 91 94 103 104 123 130 131 134 135 137
30
9 17 18 21 22 27 38 41 48 52 54 55 56 58 59 60 67 70 78 79 83 88 92 95 98 100 101 113 121 122
29
4 19 25 34 38 47 48 50 54 66 69 74 92 93 96 100 105 110 112 114 115 116 117 118 125 126 127 132 136
1
97
35
2 9 17 18 21 22 27 38 39 41 52 55 56 57 58 59 63 67 69 72 78 79 83 88 92 95 98 100 101 102 117 120 121 122 124
4
84 89 91 99
20
38 48 54 58 66 67 69 83 88 90 92 93 95 96 98 100 113 117 118 119
45
2 8 9 17 18 21 22 27 38 39 41 42 46 48 50 52 54 55 56 57 58 59 63 65 67 69 70 72 78 79 80 83 88 92 95 98 101 102 113 117 120 121 122 124 126
23
9 18 22 39 41 53 55 57 58 59 63 67 72 75 78 79 88 98 101 102 120 122 124
23
6 11 14 15 24 26 28 29 32 37 43 45 49 51 61 64 76 91 94 103 123 135 137
16
15 28 29 32 43 49 64 76 94 104 105 116 130 131 134 135
14
19 34 47 93 96 104 105 114 115 116 125 127 132 133
13
4 7 19 23 34 47 106 110 112 114 116 132 133
4
14 24 107 133
12
9 16 33 42 50 75 78 86 87 108 109 126
27
2 8 12 16 17 27 30 33 42 44 46 50 65 70 73 77 78 80 81 82 86 87 108 109 121 122 126
35
1 4 5 7 10 12 19 23 25 31 34 38 47 48 54 60 66 68 69 74 92 93 96 106 110 111 112 113 114 115 116 117 125 132 136
48
1 2 4 5 7 8 9 10 12 13 17 21 22 25 27 30 31 38 42 44 46 47 48 54 56 60 62 65 66 68 69 70 73 74 77 80 81 82 92 110 111 112 115 121 122 132 136 138
42
1 4 5 7 8 10 12 17 19 21 23 25 31 34 38 47 48 50 54 60 62 66 67 68 69 70 74 92 93 96 106 110 111 112 113 114 115 116 117 125 132 136
26
4 21 22 38 41 48 52 54 60 67 68 70 83 88 92 93 95 100 101 110 112 113 117 118 121 122
38
4 5 7 10 12 16 19 23 25 31 34 38 47 48 50 54 60 66 68 69 74 82 92 93 96 105 106 110 112 114 115 116 117 125 126 127 132 136
51
1 2 4 5 7 8 10 12 16 17 19 21 25 31 34 38 42 46 47 48 50 54 56 60 65 66 68 69 70 74 81 82 87 92 93 96 105 110 111 112 114 115 116 117 121 122 125 126 127 132 136
18
4 19 34 47 93 96 104 105 106 110 112 114 115 116 125 127 132 133
55
2 4 8 9 10 12 16 17 19 21 22 25 38 41 42 47 48 50 52 54 56 57 58 60 66 67 68 69 70 74 78 82 83 88 92 93 96 98 100 101 110 112 113 114 115 117 118 119 120 121 122 125 126 132 136
16
4 38 48 54 69 74 88 90 92 93 96 100 113 117 118 119
5
88 100 117 118 119
26
9 18 21 22 39 41 52 53 55 57 58 59 63 67 72 78 79 83 88 98 101 102 117 120 122 124
66
1 2 8 9 10 12 16 17 18 21 22 25 27 33 38 39 41 42 44 46 48 50 52 54 55 56 57 58 59 60 63 65 66 67 68 69 70 72 73 74 77 78 79 80 81 82 83 86 87 88 92 95 98 101 109 111 113 115 117 121 122 124 126 132 136 138
65
1 2 8 9 12 16 17 18 21 22 25 27 33 38 39 41 42 44 46 48 50 52 54 55 56 57 58 59 60 63 65 66 67 69 70 72 73 74 77 78 79 80 82 83 86 87 88 92 95 98 101 102 109 111 113 115 117 120 121 122 124 126 132 136 138
24
6 14 15 24 26 28 29 32 37 43 45 49 61 64 76 91 94 103 123 130 131 134 135 137
29
9 18 21 22 27 39 41 52 55 56 57 58 59 63 67 72 75 78 79 83 88 92 98 101 102 120 121 122 124
31
4 12 16 19 25 38 42 47 48 50 54 66 69 74 82 87 92 93 96 105 110 112 114 115 116 117 125 126 127 132 136
46
2 8 9 12 16 17 21 22 25 33 38 41 42 47 48 50 52 54 56 57 66 67 69 74 75 78 79 82 83 87 92 93 96 101 108 109 114 115 117 121 122 125 126 127 132 136
19
12 16 19 47 48 50 66 69 74 96 105 114 115 116 125 126 127 132 136
2
36 128
6
3 20 35 40 129 139
22
14 15 26 28 29 32 37 43 45 49 61 64 76 91 94 104 123 130 131 134 135 137
25
6 11 14 15 24 26 28 29 32 37 43 45 49 61 64 76 91 94 104 123 130 131 134 135 137
52
1 2 4 5 7 8 10 12 17 19 21 25 31 34 38 42 44 46 47 48 50 54 56 60 65 66 68 69 70 74 77 81 82 92 93 96 105 106 110 111 112 114 115 116 117 121 122 125 126 127 132 136
6
14 105 106 107 116 133
20
14 15 26 28 29 32 37 43 49 64 76 91 94 104 123 130 131 134 135 137
23
14 15 24 26 28 29 32 37 43 45 49 64 76 91 94 103 104 123 130 131 134 135 137
50
1 2 4 5 7 8 10 12 16 17 19 21 25 31 38 42 44 46 47 48 50 54 60 65 66 68 69 70 73 74 77 80 81 82 92 93 96 110 111 112 114 115 117 121 122 125 126 127 132 136
27
6 11 14 15 24 26 28 29 32 37 43 45 49 51 61 64 76 85 91 94 103 123 130 131 134 135 137
32
1 2 8 9 10 13 17 18 21 22 25 27 30 38 42 44 46 54 60 62 65 70 73 77 78 80 81 82 111 121 122 138
6
3 20 35 40 129 139
